Route #1: 1 47 39 1 
Route #2: 1 25 44 25 26 15 25 24 49 28 1 
Route #3: 1 33 1 
Route #4: 1 12 3 21 17 21 22 30 21 23 2 1 
Route #5: 1 5 20 41 20 48 1 
Route #6: 1 38 13 1 
Route #7: 1 50 11 40 11 34 46 11 1 
Route #8: 1 11 31 35 11 51 10 11 16 11 6 1 
Route #9: 1 7 25 8 25 1 
Route #10: 1 29 9 27 32 29 4 37 36 21 1 
Route #11: 1 19 20 45 43 20 14 42 20 18 1 
Cost 1040.0
